Minimize
  0.0588235294117647 y_0 + 0.1 y_1 + 0.0434782608695652 y_2
   + 0.0666666666666667 y_3 + 0.125 y_4 + 0.0769230769230769 y_5
   + 0.0909090909090909 y_6 + 0.05 y_7 + 0.0416666666666667 y_8
   + 0.0434782608695652 y_9 + 0.0714285714285714 y_10
   + 0.0476190476190476 y_11 + 0.0666666666666667 y_12
   + 0.1428571428571428 y_13 + 0.0769230769230769 y_14
   + 0.1666666666666667 y_15 + 0.2 y_16 + 0.0476190476190476 y_17
   + 0.0714285714285714 y_18 + 0.0625 y_19 + 0.125 y_20 + 0.05 y_21
   + 0.0588235294117647 y_22 + 0.1 y_23 + 0.0588235294117647 y_24
   + 0.0769230769230769 y_25 + 0.1666666666666667 y_26 + 0.0625 y_27
   + 0.0555555555555556 y_28 + 0.1666666666666667 y_29
   + 0.0526315789473684 y_30 + 0.0833333333333333 y_31
   + 0.1111111111111111 y_32 + 0.0416666666666667 y_33
   + 0.0833333333333333 y_34 + 0.1428571428571428 y_35 + 0.2 y_36
   + 0.1 y_37 + 0.1666666666666667 y_38 + 0.0714285714285714 y_39
   + 0.04 y_40 + 0.25 y_41 + 0.0625 y_42 + 0.0526315789473684 y_43
   + 0.0454545454545455 y_44 + 0.037037037037037 y_45 + 0.2 y_46
   + 0.0434782608695652 y_47 + 0.0555555555555556 y_48
   + 0.0555555555555556 y_49 + 0.0476190476190476 y_50
   + 0.0666666666666667 y_51 + 0.05 y_52 + 0.0476190476190476 y_53
   + 0.05 y_54 + 0.1428571428571428 y_55 + 0.1666666666666667 y_56
   + 0.05 y_57 + 0.0434782608695652 y_58 + 0.1428571428571428 y_59
   + 0.0769230769230769 y_60 + 0.1428571428571428 y_61 + 0.0625 y_62
   + 0.0666666666666667 y_63 + 0.0909090909090909 y_64
   + 0.0666666666666667 y_65 + 0.0555555555555556 y_66 + 0.05 y_67
   + 0.0625 y_68 + 0.05 y_69 + 0.5 y_70 + 0.0476190476190476 y_71
   + 0.0476190476190476 y_72 + 0.0555555555555556 y_73 + 0.05 y_74
   + 0.3333333333333333 y_75 + 0.0588235294117647 y_76 + 0.0625 y_77
   + 0.1666666666666667 y_78 + 0.0555555555555556 y_79 + y_80
   + 0.0909090909090909 y_81 + 0.0588235294117647 y_82
   + 0.0476190476190476 y_83 + 0.1111111111111111 y_84
   + 0.0555555555555556 y_85 + 0.05 y_86 + 0.05 y_87 + 0.0625 y_88
   + 0.1666666666666667 y_89 + 0.0625 y_90 + 0.0476190476190476 y_91
   + 0.125 y_92 + 0.0555555555555556 y_93 + 0.25 y_94
   + 0.0434782608695652 y_95 + 0.0476190476190476 y_96
   + 0.0833333333333333 y_97 + 0.1111111111111111 y_98
   + 0.0454545454545455 y_99 + 0.0833333333333333 y_100
   + 0.0476190476190476 y_101 + 0.0555555555555556 y_102
   + 0.0526315789473684 y_103 + 0.2 y_104 + 0.0769230769230769 y_105
   + 0.0714285714285714 y_106 + 0.0666666666666667 y_107
   + 0.0714285714285714 y_108 + 0.1111111111111111 y_109
   + 0.0666666666666667 y_110 + 0.2 y_111 + 0.0625 y_112
   + 0.0555555555555556 y_113 + 0.0588235294117647 y_114
   + 0.0555555555555556 y_115 + 0.1666666666666667 y_116
   + 0.037037037037037 y_117 + 0.0588235294117647 y_118 + 0.05 y_119
   + 0.125 y_120 + 0.1111111111111111 y_121 + 0.0625 y_122
   + 0.0555555555555556 y_123 + 0.0555555555555556 y_124 + 0.1 y_125
   + 0.0555555555555556 y_126 + 0.0909090909090909 y_127
   + 0.0666666666666667 y_128 + 0.0555555555555556 y_129
   + 0.0526315789473684 y_130 + 0.0416666666666667 y_131
   + 0.0588235294117647 y_132 + 0.0909090909090909 y_133
   + 0.0769230769230769 y_134 + 0.3333333333333333 y_135
   + 0.1111111111111111 y_136 + 0.05 y_137 + 0.0714285714285714 y_138
   + 0.125 y_139 + 0.0555555555555556 y_140 + 0.0714285714285714 y_141
   + 0.0588235294117647 y_142 + 0.0909090909090909 y_143
   + 0.0714285714285714 y_144 + 0.0769230769230769 y_145
   + 0.0434782608695652 y_146 + 0.0526315789473684 y_147
   + 0.0434782608695652 y_148 + 0.0454545454545455 y_149 + 0.0625 y_150
   + 0.5 y_151 + 0.0555555555555556 y_152 + 0.0454545454545455 y_153
   + 0.0714285714285714 y_154 + 0.0833333333333333 y_155
   + 0.0714285714285714 y_156 + 0.05 y_157 + 0.0526315789473684 y_158
   + 0.0833333333333333 y_159 + 0.04 y_160 + 0.1111111111111111 y_161
   + 0.0588235294117647 y_162 + 0.0588235294117647 y_163
   + 0.0454545454545455 y_164 + 0.0666666666666667 y_165
   + 0.0416666666666667 y_166 + 0.25 y_167 + 0.0384615384615385 y_168
   + 0.3333333333333333 y_169 + 0.0476190476190476 y_170
   + 0.0833333333333333 y_171 + 0.25 y_172 + 0.0588235294117647 y_173
   + 0.05 y_174 + 0.0454545454545455 y_175 + 0.0526315789473684 y_176
   + 0.0555555555555556 y_177 + 0.0909090909090909 y_178
   + 0.0416666666666667 y_179 + 0.0434782608695652 y_180
   + 0.0714285714285714 y_181 + 0.0588235294117647 y_182 + 0.05 y_183
   + 0.0454545454545455 y_184 + 0.3333333333333333 y_185
   + 0.0588235294117647 y_186 + 0.0909090909090909 y_187
   + 0.0588235294117647 y_188 + 0.05 y_189 + 0.05 y_190 + 0.25 y_191
   + 0.05 y_192 + 0.0769230769230769 y_193 + 0.0454545454545455 y_194
   + 0.0555555555555556 y_195 + 0.0588235294117647 y_196
   + 0.0588235294117647 y_197 + 0.0526315789473684 y_198
   + 0.0588235294117647 y_199 - 18.50450775725274 Constant
Subject To
 c_0: y_159 = 1
 c_1_0: y_0 + y_66 + y_68 + y_93 + y_140 + y_189 + y_195 >= 1
 c_1_1: y_1 + y_6 + y_64 + y_100 + y_109 + y_121 + y_178 >= 1
 c_1_2: y_2 + y_33 + y_149 + y_160 + y_164 + y_166 + y_175 + y_179 + y_180
   >= 1
 c_1_3: y_3 + y_10 + y_68 + y_77 + y_107 + y_165 >= 1
 c_1_4: y_4 + y_26 + y_120 + y_121 >= 1
 c_1_5: y_5 + y_10 + y_134 >= 1
 c_1_6: y_1 + y_6 + y_34 + y_64 + y_100 + y_143 + y_171 >= 1
 c_1_7: y_7 + y_54 + y_83 + y_96 + y_170 >= 1
 c_1_8: y_8 + y_40 >= 1
 c_1_9: y_9 + y_11 + y_101 + y_148 >= 1
 c_1_10: y_3 + y_5 + y_10 >= 1
 c_1_11: y_9 + y_11 + y_17 + y_52 + y_176 >= 1
 c_1_12: y_12 + y_39 + y_76 + y_145 >= 1
 c_1_13: y_13 + y_32 + y_35 + y_55 + y_59 + y_84 + y_89 + y_139 + y_161
   >= 1
 c_1_14: y_14 + y_18 + y_31 + y_60 + y_105 + y_106 + y_108 + y_154 >= 1
 c_1_15: y_15 + y_16 + y_26 + y_29 + y_36 + y_38 + y_46 + y_56 + y_61
   + y_92 + y_104 + y_116 >= 1
 c_1_16: y_15 + y_16 + y_29 + y_36 + y_38 + y_41 + y_46 + y_56 + y_75
   + y_104 + y_116 + y_167 + y_185 >= 1
 c_1_17: y_11 + y_17 + y_52 + y_148 + y_176 >= 1
 c_1_18: y_14 + y_18 + y_60 + y_105 + y_108 + y_128 + y_154 >= 1
 c_1_19: y_19 + y_27 + y_63 + y_82 + y_88 + y_141 + y_152 + y_156 + y_181
   >= 1
 c_1_20: y_20 + y_56 + y_61 + y_92 >= 1
 c_1_21: y_21 + y_30 + y_49 + y_79 + y_91 + y_147 + y_190 + y_198 >= 1
 c_1_22: y_22 + y_79 + y_90 + y_126 + y_147 + y_150 + y_163 + y_188 + y_198
   >= 1
 c_1_23: y_23 + y_120 + y_136 + y_155 + y_187 >= 1
 c_1_24: y_24 + y_27 + y_73 + y_112 + y_122 + y_123 >= 1
 c_1_25: y_25 + y_138 + y_144 >= 1
 c_1_26: y_4 + y_15 + y_26 + y_29 + y_36 + y_38 + y_41 + y_46 + y_89
   + y_111 + y_120 + y_191 >= 1
 c_1_27: y_19 + y_24 + y_27 + y_63 + y_88 + y_123 + y_152 + y_156 >= 1
 c_1_28: y_28 + y_73 + y_115 + y_162 >= 1
 c_1_29: y_15 + y_16 + y_26 + y_29 + y_36 + y_38 + y_46 + y_56 + y_61
   + y_104 + y_116 + y_167 >= 1
 c_1_30: y_21 + y_30 + y_49 + y_57 + y_79 + y_147 + y_163 + y_190 + y_198
   >= 1
 c_1_31: y_14 + y_31 + y_60 + y_105 + y_155 >= 1
 c_1_32: y_13 + y_32 + y_35 + y_59 + y_81 + y_84 + y_98 + y_133 + y_139
   + y_161 >= 1
 c_1_33: y_2 + y_33 + y_160 + y_166 + y_179 + y_180 >= 1
 c_1_34: y_6 + y_34 + y_100 + y_143 + y_145 + y_187 >= 1
 c_1_35: y_13 + y_32 + y_35 + y_55 + y_59 + y_78 + y_139 + y_161 >= 1
 c_1_36: y_15 + y_16 + y_26 + y_29 + y_36 + y_38 + y_41 + y_46 + y_104
   + y_116 + y_167 + y_191 >= 1
 c_1_37: y_37 + y_109 + y_125 >= 1
 c_1_38: y_15 + y_16 + y_26 + y_29 + y_36 + y_38 + y_46 + y_56 + y_61
   + y_92 + y_104 + y_116 >= 1
 c_1_39: y_12 + y_39 + y_51 + y_62 + y_65 + y_145 >= 1
 c_1_40: y_8 + y_40 + y_117 + y_168 >= 1
 c_1_41: y_16 + y_26 + y_36 + y_41 + y_46 + y_111 + y_135 + y_169 + y_172
   + y_191 >= 1
 c_1_42: y_42 + y_48 + y_102 + y_110 + y_113 + y_129 + y_132 + y_182
   + y_186 + y_196 + y_199 >= 1
 c_1_43: y_43 + y_67 + y_69 + y_72 + y_114 + y_115 + y_142 + y_173 + y_197
   >= 1
 c_1_44: y_44 + y_184 >= 1
 c_1_45: y_45 + y_117 + y_168 >= 1
 c_1_46: y_15 + y_16 + y_26 + y_29 + y_36 + y_38 + y_41 + y_46 + y_104
   + y_116 + y_167 + y_169 + y_185 + y_191 >= 1
 c_1_47: y_47 + y_58 + y_95 + y_131 + y_146 >= 1
 c_1_48: y_42 + y_48 + y_85 + y_102 + y_103 + y_113 + y_118 + y_124 + y_129
   + y_130 + y_132 + y_157 + y_186 + y_196 + y_199 >= 1
 c_1_49: y_21 + y_30 + y_49 + y_79 + y_147 + y_150 + y_163 + y_182 >= 1
 c_1_50: y_50 + y_153 + y_158 + y_174 + y_175 + y_180 >= 1
 c_1_51: y_39 + y_51 + y_62 + y_65 + y_114 + y_128 + y_173 >= 1
 c_1_52: y_11 + y_17 + y_52 + y_176 >= 1
 c_1_53: y_53 + y_57 + y_74 + y_101 + y_103 + y_130 + y_157 + y_183 + y_192
   >= 1
 c_1_54: y_7 + y_54 + y_96 + y_137 + y_170 + y_177 >= 1
 c_1_55: y_13 + y_35 + y_55 + y_59 + y_89 + y_111 + y_120 + y_136 + y_139
   + y_161 >= 1
 c_1_56: y_15 + y_16 + y_20 + y_29 + y_38 + y_56 + y_61 + y_92 + y_104
   + y_116 >= 1
 c_1_57: y_30 + y_53 + y_57 + y_74 + y_103 + y_130 + y_157 + y_183 + y_190
   + y_192 >= 1
 c_1_58: y_47 + y_58 + y_95 + y_131 + y_146 >= 1
 c_1_59: y_13 + y_32 + y_35 + y_55 + y_59 + y_84 + y_89 + y_136 + y_139
   + y_161 >= 1
 c_1_60: y_14 + y_18 + y_31 + y_60 + y_105 + y_106 + y_108 + y_154 + y_155
   >= 1
 c_1_61: y_15 + y_20 + y_29 + y_38 + y_56 + y_61 + y_92 + y_104 + y_109
   + y_116 >= 1
 c_1_62: y_39 + y_51 + y_62 + y_65 + y_114 + y_142 + y_173 + y_197 >= 1
 c_1_63: y_19 + y_27 + y_63 + y_88 + y_106 + y_141 + y_156 + y_181 >= 1
 c_1_64: y_1 + y_6 + y_64 + y_100 + y_171 + y_178 >= 1
 c_1_65: y_39 + y_51 + y_62 + y_65 + y_114 + y_128 + y_173 >= 1
 c_1_66: y_0 + y_66 + y_68 + y_93 + y_140 + y_189 + y_195 >= 1
 c_1_67: y_43 + y_67 + y_69 + y_72 + y_99 + y_194 >= 1
 c_1_68: y_0 + y_3 + y_66 + y_68 + y_77 + y_82 + y_107 + y_140 + y_165
   + y_195 >= 1
 c_1_69: y_43 + y_67 + y_69 + y_72 + y_99 + y_115 + y_174 + y_194 >= 1
 c_1_70: y_70 + y_80 + y_135 + y_151 + y_169 >= 1
 c_1_71: y_71 + y_87 + y_119 + y_137 + y_149 + y_164 + y_175 >= 1
 c_1_72: y_43 + y_67 + y_69 + y_72 + y_194 >= 1
 c_1_73: y_24 + y_28 + y_73 + y_122 + y_123 + y_158 + y_162 >= 1
 c_1_74: y_53 + y_57 + y_74 + y_102 + y_103 + y_113 + y_129 + y_130 + y_157
   + y_183 + y_190 + y_192 >= 1
 c_1_75: y_16 + y_75 + y_167 + y_169 + y_185 >= 1
 c_1_76: y_12 + y_76 + y_85 + y_118 + y_186 + y_196 + y_199 >= 1
 c_1_77: y_3 + y_68 + y_77 + y_107 + y_165 >= 1
 c_1_78: y_35 + y_78 + y_94 + y_111 + y_172 >= 1
 c_1_79: y_21 + y_22 + y_30 + y_49 + y_79 + y_126 + y_147 + y_163 + y_198
   >= 1
 c_1_80: y_70 + y_80 + y_135 + y_151 + y_169 + y_185 >= 1
 c_1_81: y_32 + y_81 + y_84 + y_97 + y_98 + y_127 + y_133 + y_134 + y_159
   >= 1
 c_1_82: y_19 + y_68 + y_82 + y_140 + y_152 + y_177 >= 1
 c_1_83: y_7 + y_83 + y_96 + y_170 >= 1
 c_1_84: y_13 + y_32 + y_59 + y_81 + y_84 + y_98 + y_136 + y_139 + y_161
   >= 1
 c_1_85: y_48 + y_76 + y_85 + y_118 + y_124 + y_176 >= 1
 c_1_86: y_86 + y_91 + y_147 + y_198 >= 1
 c_1_87: y_71 + y_87 + y_119 + y_137 >= 1
 c_1_88: y_19 + y_27 + y_63 + y_88 + y_141 + y_152 + y_156 >= 1
 c_1_89: y_13 + y_26 + y_55 + y_59 + y_89 + y_111 + y_120 >= 1
 c_1_90: y_22 + y_90 + y_126 + y_188 >= 1
 c_1_91: y_21 + y_86 + y_91 + y_147 + y_198 >= 1
 c_1_92: y_15 + y_20 + y_38 + y_56 + y_61 + y_92 + y_109 + y_116 >= 1
 c_1_93: y_0 + y_66 + y_93 + y_140 + y_189 + y_195 >= 1
 c_1_94: y_78 + y_94 + y_111 + y_135 + y_172 + y_191 >= 1
 c_1_95: y_47 + y_58 + y_95 + y_131 + y_146 >= 1
 c_1_96: y_7 + y_54 + y_83 + y_96 + y_170 >= 1
 c_1_97: y_81 + y_97 + y_127 + y_133 + y_134 + y_159 + y_193 >= 1
 c_1_98: y_32 + y_81 + y_84 + y_98 + y_127 + y_133 + y_136 + y_139 + y_161
   >= 1
 c_1_99: y_67 + y_69 + y_99 + y_194 >= 1
 c_1_100: y_1 + y_6 + y_34 + y_64 + y_100 + y_145 + y_171 >= 1
 c_1_101: y_9 + y_53 + y_101 + y_103 + y_130 + y_157 + y_183 + y_192 >= 1
 c_1_102: y_42 + y_48 + y_74 + y_102 + y_103 + y_113 + y_118 + y_124
   + y_129 + y_130 + y_132 + y_157 + y_183 + y_186 + y_196 + y_199 >= 1
 c_1_103: y_48 + y_53 + y_57 + y_74 + y_101 + y_102 + y_103 + y_113 + y_124
   + y_129 + y_130 + y_157 + y_183 + y_192 >= 1
 c_1_104: y_15 + y_16 + y_29 + y_36 + y_38 + y_46 + y_56 + y_61 + y_104
   + y_116 + y_167 >= 1
 c_1_105: y_14 + y_18 + y_31 + y_60 + y_105 + y_106 + y_108 + y_154 >= 1
 c_1_106: y_14 + y_60 + y_63 + y_105 + y_106 + y_108 + y_112 + y_154 >= 1
 c_1_107: y_3 + y_68 + y_77 + y_107 + y_165 >= 1
 c_1_108: y_14 + y_18 + y_60 + y_105 + y_106 + y_108 + y_128 + y_154 >= 1
 c_1_109: y_1 + y_37 + y_61 + y_92 + y_109 + y_125 + y_178 >= 1
 c_1_110: y_42 + y_110 + y_132 + y_138 + y_144 + y_150 + y_182 >= 1
 c_1_111: y_26 + y_41 + y_55 + y_78 + y_89 + y_94 + y_111 + y_172 + y_191
   >= 1
 c_1_112: y_24 + y_106 + y_112 + y_122 + y_154 >= 1
 c_1_113: y_42 + y_48 + y_74 + y_102 + y_103 + y_113 + y_124 + y_129
   + y_130 + y_132 + y_183 + y_186 + y_196 + y_199 >= 1
 c_1_114: y_43 + y_51 + y_62 + y_65 + y_114 + y_142 + y_173 + y_197 >= 1
 c_1_115: y_28 + y_43 + y_69 + y_115 + y_162 + y_174 + y_197 >= 1
 c_1_116: y_15 + y_16 + y_29 + y_36 + y_38 + y_46 + y_56 + y_61 + y_92
   + y_104 + y_116 >= 1
 c_1_117: y_40 + y_45 + y_117 + y_168 >= 1
 c_1_118: y_48 + y_76 + y_85 + y_102 + y_118 + y_124 + y_129 + y_186
   + y_196 + y_199 >= 1
 c_1_119: y_71 + y_87 + y_119 + y_123 + y_137 >= 1
 c_1_120: y_4 + y_23 + y_26 + y_55 + y_89 + y_120 >= 1
 c_1_121: y_1 + y_4 + y_121 >= 1
 c_1_122: y_24 + y_73 + y_112 + y_122 + y_154 + y_162 >= 1
 c_1_123: y_24 + y_27 + y_73 + y_119 + y_123 >= 1
 c_1_124: y_48 + y_85 + y_102 + y_103 + y_113 + y_118 + y_124 + y_129
   + y_130 + y_157 + y_176 + y_183 + y_186 + y_196 + y_199 >= 1
 c_1_125: y_37 + y_109 + y_125 + y_178 >= 1
 c_1_126: y_22 + y_79 + y_90 + y_126 + y_147 + y_188 + y_198 >= 1
 c_1_127: y_81 + y_97 + y_98 + y_127 + y_133 >= 1
 c_1_128: y_18 + y_51 + y_65 + y_108 + y_128 + y_154 + y_162 >= 1
 c_1_129: y_42 + y_48 + y_74 + y_102 + y_103 + y_113 + y_118 + y_124
   + y_129 + y_130 + y_132 + y_186 + y_196 + y_199 >= 1
 c_1_130: y_48 + y_53 + y_57 + y_74 + y_101 + y_102 + y_103 + y_113 + y_124
   + y_129 + y_130 + y_157 + y_183 + y_192 >= 1
 c_1_131: y_47 + y_58 + y_95 + y_131 + y_146 >= 1
 c_1_132: y_42 + y_48 + y_102 + y_110 + y_113 + y_129 + y_132 + y_182
   + y_186 + y_196 + y_199 >= 1
 c_1_133: y_32 + y_81 + y_97 + y_98 + y_127 + y_133 >= 1
 c_1_134: y_5 + y_81 + y_97 + y_134 + y_159 + y_193 >= 1
 c_1_135: y_41 + y_70 + y_80 + y_94 + y_135 + y_151 + y_169 + y_172 + y_185
   + y_191 >= 1
 c_1_136: y_23 + y_55 + y_59 + y_84 + y_98 + y_136 + y_139 + y_161 >= 1
 c_1_137: y_54 + y_71 + y_87 + y_119 + y_137 >= 1
 c_1_138: y_25 + y_110 + y_138 + y_144 + y_171 >= 1
 c_1_139: y_13 + y_32 + y_35 + y_55 + y_59 + y_84 + y_98 + y_136 + y_139
   + y_161 >= 1
 c_1_140: y_0 + y_66 + y_68 + y_82 + y_93 + y_140 + y_177 + y_195 >= 1
 c_1_141: y_19 + y_63 + y_88 + y_141 + y_156 + y_159 + y_181 + y_193 >= 1
 c_1_142: y_43 + y_62 + y_114 + y_142 + y_173 + y_197 >= 1
 c_1_143: y_6 + y_34 + y_143 + y_155 + y_187 >= 1
 c_1_144: y_25 + y_110 + y_138 + y_144 >= 1
 c_1_145: y_12 + y_34 + y_39 + y_100 + y_145 >= 1
 c_1_146: y_47 + y_58 + y_95 + y_131 + y_146 >= 1
 c_1_147: y_21 + y_22 + y_30 + y_49 + y_79 + y_86 + y_91 + y_126 + y_147
   + y_198 >= 1
 c_1_148: y_9 + y_17 + y_148 >= 1
 c_1_149: y_2 + y_71 + y_149 + y_164 + y_175 + y_180 >= 1
 c_1_150: y_22 + y_49 + y_110 + y_150 + y_163 + y_182 >= 1
 c_1_151: y_70 + y_80 + y_135 + y_151 + y_169 + y_185 >= 1
 c_1_152: y_19 + y_27 + y_82 + y_88 + y_152 + y_177 >= 1
 c_1_153: y_50 + y_153 + y_175 + y_179 + y_180 >= 1
 c_1_154: y_14 + y_18 + y_60 + y_105 + y_106 + y_108 + y_112 + y_122
   + y_128 + y_154 >= 1
 c_1_155: y_23 + y_31 + y_60 + y_143 + y_155 + y_187 >= 1
 c_1_156: y_19 + y_27 + y_63 + y_88 + y_141 + y_156 + y_181 + y_193 >= 1
 c_1_157: y_48 + y_53 + y_57 + y_74 + y_101 + y_102 + y_103 + y_124 + y_130
   + y_157 + y_183 + y_192 >= 1
 c_1_158: y_50 + y_73 + y_158 + y_174 >= 1
 c_1_159: y_81 + y_97 + y_134 + y_141 + y_159 + y_181 + y_193 >= 1
 c_1_160: y_2 + y_33 + y_160 + y_166 + y_179 >= 1
 c_1_161: y_13 + y_32 + y_35 + y_55 + y_59 + y_84 + y_98 + y_136 + y_139
   + y_161 >= 1
 c_1_162: y_28 + y_73 + y_115 + y_122 + y_128 + y_162 >= 1
 c_1_163: y_22 + y_30 + y_49 + y_79 + y_150 + y_163 + y_182 >= 1
 c_1_164: y_2 + y_71 + y_149 + y_164 + y_175 + y_180 >= 1
 c_1_165: y_3 + y_68 + y_77 + y_107 + y_165 + y_193 >= 1
 c_1_166: y_2 + y_33 + y_160 + y_166 + y_179 + y_180 >= 1
 c_1_167: y_16 + y_29 + y_36 + y_46 + y_75 + y_104 + y_167 + y_185 >= 1
 c_1_168: y_40 + y_45 + y_117 + y_168 >= 1
 c_1_169: y_41 + y_46 + y_70 + y_75 + y_80 + y_135 + y_151 + y_169 + y_172
   + y_185 + y_191 >= 1
 c_1_170: y_7 + y_54 + y_83 + y_96 + y_170 >= 1
 c_1_171: y_6 + y_64 + y_100 + y_138 + y_171 + y_178 >= 1
 c_1_172: y_41 + y_78 + y_94 + y_111 + y_135 + y_169 + y_172 + y_191 >= 1
 c_1_173: y_43 + y_51 + y_62 + y_65 + y_114 + y_142 + y_173 + y_197 >= 1
 c_1_174: y_50 + y_69 + y_115 + y_158 + y_174 >= 1
 c_1_175: y_2 + y_50 + y_71 + y_149 + y_153 + y_164 + y_175 + y_180 >= 1
 c_1_176: y_11 + y_17 + y_52 + y_85 + y_124 + y_176 >= 1
 c_1_177: y_54 + y_82 + y_140 + y_152 + y_177 >= 1
 c_1_178: y_1 + y_64 + y_109 + y_125 + y_171 + y_178 >= 1
 c_1_179: y_2 + y_33 + y_153 + y_160 + y_166 + y_179 + y_180 >= 1
 c_1_180: y_2 + y_33 + y_50 + y_149 + y_153 + y_164 + y_166 + y_175 + y_179
   + y_180 >= 1
 c_1_181: y_19 + y_63 + y_141 + y_156 + y_159 + y_181 + y_193 >= 1
 c_1_182: y_42 + y_49 + y_110 + y_132 + y_150 + y_163 + y_182 >= 1
 c_1_183: y_53 + y_57 + y_74 + y_101 + y_102 + y_103 + y_113 + y_124
   + y_130 + y_157 + y_183 + y_192 >= 1
 c_1_184: y_44 + y_184 >= 1
 c_1_185: y_16 + y_46 + y_75 + y_80 + y_135 + y_151 + y_167 + y_169 + y_185
   >= 1
 c_1_186: y_42 + y_48 + y_76 + y_102 + y_113 + y_118 + y_124 + y_129
   + y_132 + y_186 + y_196 + y_199 >= 1
 c_1_187: y_23 + y_34 + y_143 + y_155 + y_187 >= 1
 c_1_188: y_22 + y_90 + y_126 + y_188 >= 1
 c_1_189: y_0 + y_66 + y_93 + y_189 + y_195 >= 1
 c_1_190: y_21 + y_30 + y_57 + y_74 + y_190 + y_192 >= 1
 c_1_191: y_26 + y_36 + y_41 + y_46 + y_94 + y_111 + y_135 + y_169 + y_172
   + y_191 >= 1
 c_1_192: y_53 + y_57 + y_74 + y_101 + y_103 + y_130 + y_157 + y_183
   + y_190 + y_192 >= 1
 c_1_193: y_97 + y_134 + y_141 + y_156 + y_159 + y_165 + y_181 + y_193
   >= 1
 c_1_194: y_67 + y_69 + y_72 + y_99 + y_194 >= 1
 c_1_195: y_0 + y_66 + y_68 + y_93 + y_140 + y_189 + y_195 >= 1
 c_1_196: y_42 + y_48 + y_76 + y_102 + y_113 + y_118 + y_124 + y_129
   + y_132 + y_186 + y_196 + y_199 >= 1
 c_1_197: y_43 + y_62 + y_114 + y_115 + y_142 + y_173 + y_197 >= 1
 c_1_198: y_21 + y_22 + y_30 + y_79 + y_86 + y_91 + y_126 + y_147 + y_198
   >= 1
 c_1_199: y_42 + y_48 + y_76 + y_102 + y_113 + y_118 + y_124 + y_129
   + y_132 + y_186 + y_196 + y_199 >= 1
Bounds
 Constant = 1
Binaries
 y_0 y_1 y_2 y_3 y_4 y_5 y_6 y_7 y_8 y_9 y_10 y_11 y_12 y_13 y_14 y_15 y_16
 y_17 y_18 y_19 y_20 y_21 y_22 y_23 y_24 y_25 y_26 y_27 y_28 y_29 y_30 y_31
 y_32 y_33 y_34 y_35 y_36 y_37 y_38 y_39 y_40 y_41 y_42 y_43 y_44 y_45 y_46
 y_47 y_48 y_49 y_50 y_51 y_52 y_53 y_54 y_55 y_56 y_57 y_58 y_59 y_60 y_61
 y_62 y_63 y_64 y_65 y_66 y_67 y_68 y_69 y_70 y_71 y_72 y_73 y_74 y_75 y_76
 y_77 y_78 y_79 y_80 y_81 y_82 y_83 y_84 y_85 y_86 y_87 y_88 y_89 y_90 y_91
 y_92 y_93 y_94 y_95 y_96 y_97 y_98 y_99 y_100 y_101 y_102 y_103 y_104
 y_105 y_106 y_107 y_108 y_109 y_110 y_111 y_112 y_113 y_114 y_115 y_116
 y_117 y_118 y_119 y_120 y_121 y_122 y_123 y_124 y_125 y_126 y_127 y_128
 y_129 y_130 y_131 y_132 y_133 y_134 y_135 y_136 y_137 y_138 y_139 y_140
 y_141 y_142 y_143 y_144 y_145 y_146 y_147 y_148 y_149 y_150 y_151 y_152
 y_153 y_154 y_155 y_156 y_157 y_158 y_159 y_160 y_161 y_162 y_163 y_164
 y_165 y_166 y_167 y_168 y_169 y_170 y_171 y_172 y_173 y_174 y_175 y_176
 y_177 y_178 y_179 y_180 y_181 y_182 y_183 y_184 y_185 y_186 y_187 y_188
 y_189 y_190 y_191 y_192 y_193 y_194 y_195 y_196 y_197 y_198 y_199
End
